p tdp 60 117
7 46
9 26
11 33
24 56
3 50
27 28
42 49
37 53
44 55
34 52
40 45
5 16
14 36
2 26
29 48
15 38
22 30
5 12
23 35
4 45
31 38
14 39
51 60
25 51
23 25
17 58
13 20
20 47
16 49
21 24
25 32
34 43
10 17
11 19
54 59
1 7
30 59
10 23
6 56
33 34
9 48
30 44
41 53
1 27
12 21
50 51
36 56
5 28
18 52
15 20
8 38
29 35
36 53
15 48
4 42
13 59
4 57
26 41
8 43
2 43
11 52
32 58
43 59
41 49
18 43
6 35
46 52
11 24
4 8
21 52
33 52
8 24
10 16
27 49
2 20
24 28
15 23
10 56
38 59
7 11
1 44
37 45
1 38
18 28
23 46
6 16
5 60
28 31
16 25
9 39
15 49
23 59
50 56
56 59
9 60
24 37
9 16
25 56
29 40
16 45
39 44
16 48
6 8
6 40
4 52
20 32
19 29
10 60
23 50
21 57
26 44
8 32
9 52
38 50
12 35
28 52
22 56
